NAME : rnd86_20.tsp
TYPE : TSP
DIMENSION : 20
EDGE_WEIGHT_TYPE : EUC_2D
NODE_COORD_SECTION
0 856 802
1 240 290
2 621 258
3 566 355
4 116 761
5 97 519
6 818 37
7 743 560
8 278 463
9 195 123
10 199 247
11 926 29
12 275 344
13 334 751
14 352 131
15 310 779
16 31 131
17 756 255
18 894 867
19 631 16
